;; Mutation-Based Equivalence Benchmark
;; Source:     AutomatArk / instance14549.smt2
;; Mutations:  bound_upper_dec, literal_char_dec
;; Status:     sat
;;
;; Original regex vs mutated regex
;; Equivalence check: unsat ⟺ L(R1) = L(R2)

(set-info :smt-lib-version 2.6)
(set-info :category "mutation")
(set-info :status sat)
(set-logic QF_S)


;; R1: original
;; R2: mutated (bound_upper_dec, literal_char_dec)
(assert
  (not
    (=
      (re.++ (str.to_re "/.appendChild") (re.* re.allchar) (str.to_re ".id") ((_ re.loop 0 200) re.allchar) (re.union (str.to_re "offset") (str.to_re "client")) (re.union (str.to_re "Height") (str.to_re "Left") (str.to_re "Parent") (str.to_re "Top") (str.to_re "Width")) ((_ re.loop 0 200) re.allchar) (re.union (str.to_re "offset") (str.to_re "client")) (re.union (str.to_re "Height") (str.to_re "Left") (str.to_re "Parent") (str.to_re "Top") (str.to_re "Width")) (str.to_re "/is\u{a}"))
      (re.++ (str.to_re "/.appendChilc") (re.* re.allchar) (str.to_re ".id") ((_ re.loop 0 199) re.allchar) (re.union (str.to_re "offset") (str.to_re "client")) (re.union (str.to_re "Height") (str.to_re "Left") (str.to_re "Parent") (str.to_re "Top") (str.to_re "Width")) ((_ re.loop 0 200) re.allchar) (re.union (str.to_re "offset") (str.to_re "client")) (re.union (str.to_re "Height") (str.to_re "Left") (str.to_re "Parent") (str.to_re "Top") (str.to_re "Width")) (str.to_re "/is\u{a}")))))

(check-sat)
(exit)
